row=10;
column=10;
Board=[|0,1,0,1,0,1,0,1,1,0|1,0,1,0,0,1,0,0,0,0|0,1,0,1,0,0,0,0,0,0|0,0,0,0,0,0,0,0,1,0|1,0,0,0,0,1,0,0,0,0|0,0,0,0,0,0,0,1,0,1|0,0,0,0,0,0,0,0,0,0|0,0,0,1,0,1,0,0,0,0|1,0,0,0,0,0,0,1,0,1|0,0,0,0,0,0,0,0,0,0|];
right = [3,1,2,2,1,2,3,1,2,3];
bottom = [4,1,0,4,0,3,1,2,2,3];
